(param (A B C) (rightTri C))
(compute D point (foot C A B))
(param X point (onSeg C D))
(param K point (onSeg A X))
(assert (cong B K B C))
(param L point (onSeg B X))
(assert (cong A L A C))
(compute M point (interLL A L B K))
(confirm (cong M K M L))